proyfinal/src/viki/013/experimentInOfficeAgust.take6.output/bbcf1ece-5199-4574-a84f-609687efb120.als.dat
{'cnf.clauses': '118081',
 'cnf.totvars': '69608',
 'conflict literals': '31',
 'conflicts': '15',
 'decisions': '5441',
 'memused.mb': '14.72',
 'outcome': 'UNSAT',
 'propagations': '28175',
 'restarts': '1',
 'solver.msecs': 34,
 'task.msecs': 83}
