proyfinal/src/viki/013/experimentInOfficeAgust.take6.output/bbcf1ece-5199-4574-a84f-609687efb120.als.out
Reading from standard input... Use '--help' for help.
============================[ Problem Statistics ]=============================
|                                                                             |
|  Number of variables:         69608                                         |
|  Number of clauses:          118081                                         |
|  Parse time:                   0.03 s                                       |
|                                                                             |
============================[ Search Statistics ]==============================
| Conflicts |          ORIGINAL         |          LEARNT          | Progress |
|           |    Vars  Clauses Literals |    Limit  Clauses Lit/Cl |          |
===============================================================================
===============================================================================
restarts              : 1
conflicts             : 15             (440 /sec)
decisions             : 5441           (0.00 % random) (159560 /sec)
propagations          : 28175          (826246 /sec)
conflict literals     : 31             (0.00 % deleted)
Memory used           : 14.72 MB
CPU time              : 0.0341 s

UNSATISFIABLE
